c 
c G(k,n,p) graph
c graph gen seed     : 89120123
c number of vertices : 80
c max number of edges: 1600
c number of classes  : 2
c edge density       : 0.300000
c edge probability   : 0.600000
c data structure     : dense
c
c           Graph Stats
c number of vertices  : 80
c nonisolated vertices: 80
c number of edges     : 953
c edge density        : 0.301582
c max degree          : 31
c avg degree          : 23.82
c min degree          : 17
p col 80 953
e 1 2
e 1 4
e 1 6
e 1 7
e 1 13
e 1 14
e 1 24
e 1 26
e 1 27
e 1 32
e 1 35
e 1 37
e 1 38
e 1 39
e 1 40
e 1 42
e 1 46
e 1 49
e 1 53
e 1 64
e 1 67
e 1 70
e 1 73
e 1 78
e 2 5
e 2 11
e 2 15
e 2 16
e 2 17
e 2 18
e 2 19
e 2 20
e 2 21
e 2 22
e 2 25
e 2 29
e 2 30
e 2 36
e 2 44
e 2 45
e 2 50
e 2 51
e 2 54
e 2 55
e 2 62
e 2 63
e 2 69
e 2 71
e 2 72
e 2 74
e 2 76
e 2 77
e 3 5
e 3 15
e 3 16
e 3 17
e 3 18
e 3 19
e 3 20
e 3 22
e 3 25
e 3 28
e 3 29
e 3 30
e 3 34
e 3 36
e 3 41
e 3 43
e 3 44
e 3 47
e 3 51
e 3 56
e 3 58
e 3 62
e 3 63
e 3 66
e 3 71
e 3 74
e 3 75
e 3 76
e 3 79
e 3 80
e 4 5
e 4 11
e 4 15
e 4 19
e 4 25
e 4 28
e 4 31
e 4 36
e 4 43
e 4 45
e 4 50
e 4 51
e 4 55
e 4 56
e 4 58
e 4 63
e 4 68
e 4 71
e 4 72
e 4 74
e 4 77
e 4 80
e 5 6
e 5 7
e 5 8
e 5 9
e 5 14
e 5 23
e 5 26
e 5 27
e 5 32
e 5 33
e 5 37
e 5 39
e 5 42
e 5 46
e 5 52
e 5 60
e 5 61
e 5 64
e 5 65
e 5 67
e 5 70
e 6 15
e 6 16
e 6 17
e 6 20
e 6 21
e 6 22
e 6 25
e 6 28
e 6 29
e 6 34
e 6 36
e 6 41
e 6 47
e 6 50
e 6 54
e 6 58
e 6 63
e 6 66
e 6 68
e 6 72
e 6 75
e 6 76
e 6 77
e 6 80
e 7 15
e 7 16
e 7 18
e 7 20
e 7 22
e 7 25
e 7 30
e 7 31
e 7 34
e 7 41
e 7 43
e 7 44
e 7 50
e 7 51
e 7 54
e 7 56
e 7 66
e 7 69
e 7 71
e 7 76
e 7 79
e 7 80
e 8 11
e 8 16
e 8 17
e 8 19
e 8 20
e 8 28
e 8 30
e 8 31
e 8 34
e 8 41
e 8 45
e 8 47
e 8 50
e 8 54
e 8 55
e 8 56
e 8 58
e 8 69
e 8 71
e 8 72
e 8 80
e 9 11
e 9 15
e 9 16
e 9 17
e 9 18
e 9 19
e 9 20
e 9 21
e 9 22
e 9 34
e 9 36
e 9 41
e 9 44
e 9 47
e 9 51
e 9 54
e 9 55
e 9 58
e 9 63
e 9 66
e 9 68
e 9 74
e 9 76
e 9 77
e 9 79
e 10 11
e 10 16
e 10 17
e 10 20
e 10 21
e 10 25
e 10 28
e 10 31
e 10 34
e 10 44
e 10 45
e 10 50
e 10 62
e 10 69
e 10 71
e 10 74
e 10 75
e 10 76
e 10 77
e 10 79
e 11 13
e 11 14
e 11 24
e 11 26
e 11 27
e 11 33
e 11 35
e 11 37
e 11 39
e 11 42
e 11 48
e 11 49
e 11 52
e 11 57
e 11 59
e 11 60
e 11 65
e 11 70
e 11 73
e 12 15
e 12 16
e 12 17
e 12 19
e 12 20
e 12 28
e 12 30
e 12 31
e 12 34
e 12 41
e 12 44
e 12 45
e 12 47
e 12 50
e 12 54
e 12 55
e 12 56
e 12 63
e 12 66
e 12 68
e 12 69
e 12 72
e 12 79
e 12 80
e 13 16
e 13 17
e 13 18
e 13 19
e 13 20
e 13 21
e 13 25
e 13 29
e 13 31
e 13 36
e 13 41
e 13 45
e 13 47
e 13 55
e 13 58
e 13 62
e 13 63
e 13 66
e 13 71
e 13 74
e 13 75
e 13 76
e 13 77
e 13 79
e 13 80
e 14 15
e 14 17
e 14 18
e 14 19
e 14 21
e 14 22
e 14 25
e 14 36
e 14 41
e 14 43
e 14 44
e 14 45
e 14 47
e 14 50
e 14 51
e 14 55
e 14 56
e 14 62
e 14 63
e 14 66
e 14 68
e 14 69
e 14 72
e 14 75
e 14 76
e 14 77
e 14 80
e 15 23
e 15 26
e 15 27
e 15 32
e 15 33
e 15 37
e 15 38
e 15 39
e 15 42
e 15 48
e 15 49
e 15 53
e 15 59
e 15 64
e 15 67
e 15 70
e 15 78
e 16 23
e 16 24
e 16 26
e 16 32
e 16 35
e 16 38
e 16 48
e 16 49
e 16 52
e 16 57
e 16 59
e 16 60
e 16 61
e 16 65
e 16 67
e 16 70
e 16 73
e 17 23
e 17 24
e 17 27
e 17 33
e 17 35
e 17 38
e 17 39
e 17 40
e 17 42
e 17 46
e 17 53
e 17 59
e 17 60
e 17 65
e 17 67
e 17 70
e 17 78
e 18 23
e 18 27
e 18 32
e 18 33
e 18 40
e 18 42
e 18 46
e 18 48
e 18 53
e 18 57
e 18 61
e 18 67
e 18 70
e 18 73
e 19 24
e 19 26
e 19 27
e 19 33
e 19 35
e 19 37
e 19 38
e 19 39
e 19 42
e 19 48
e 19 49
e 19 60
e 19 65
e 20 23
e 20 27
e 20 32
e 20 33
e 20 35
e 20 38
e 20 49
e 20 52
e 20 53
e 20 57
e 20 59
e 20 64
e 20 65
e 20 73
e 21 23
e 21 26
e 21 33
e 21 35
e 21 37
e 21 40
e 21 42
e 21 46
e 21 48
e 21 53
e 21 70
e 22 24
e 22 26
e 22 27
e 22 32
e 22 33
e 22 35
e 22 38
e 22 39
e 22 42
e 22 59
e 22 61
e 22 64
e 22 65
e 22 67
e 22 70
e 22 78
e 23 25
e 23 30
e 23 31
e 23 34
e 23 36
e 23 43
e 23 45
e 23 47
e 23 54
e 23 56
e 23 62
e 23 63
e 23 66
e 23 69
e 23 71
e 23 72
e 23 75
e 23 77
e 23 79
e 23 80
e 24 25
e 24 28
e 24 29
e 24 30
e 24 31
e 24 34
e 24 36
e 24 41
e 24 43
e 24 44
e 24 47
e 24 50
e 24 51
e 24 55
e 24 58
e 24 68
e 24 74
e 24 75
e 24 76
e 24 79
e 25 27
e 25 33
e 25 35
e 25 39
e 25 40
e 25 42
e 25 46
e 25 49
e 25 53
e 25 60
e 25 61
e 25 65
e 25 70
e 25 73
e 25 78
e 26 28
e 26 29
e 26 30
e 26 31
e 26 34
e 26 41
e 26 43
e 26 44
e 26 51
e 26 55
e 26 56
e 26 62
e 26 66
e 26 69
e 26 71
e 26 72
e 26 74
e 26 75
e 26 77
e 26 80
e 27 28
e 27 29
e 27 30
e 27 31
e 27 34
e 27 36
e 27 43
e 27 47
e 27 54
e 27 55
e 27 56
e 27 66
e 27 69
e 27 74
e 27 77
e 27 79
e 28 33
e 28 35
e 28 38
e 28 39
e 28 42
e 28 46
e 28 49
e 28 52
e 28 53
e 28 59
e 28 60
e 28 64
e 28 65
e 28 67
e 28 70
e 28 73
e 28 78
e 29 32
e 29 38
e 29 40
e 29 42
e 29 46
e 29 49
e 29 52
e 29 64
e 29 65
e 29 67
e 29 78
e 30 37
e 30 38
e 30 40
e 30 42
e 30 49
e 30 52
e 30 53
e 30 59
e 30 61
e 30 64
e 30 65
e 30 73
e 31 32
e 31 33
e 31 35
e 31 37
e 31 39
e 31 42
e 31 48
e 31 52
e 31 53
e 31 57
e 31 59
e 31 61
e 31 64
e 31 65
e 31 67
e 31 70
e 31 73
e 32 34
e 32 45
e 32 47
e 32 51
e 32 55
e 32 56
e 32 62
e 32 63
e 32 68
e 32 71
e 32 74
e 32 75
e 32 76
e 32 77
e 32 80
e 33 36
e 33 43
e 33 44
e 33 45
e 33 47
e 33 50
e 33 51
e 33 55
e 33 63
e 33 66
e 33 72
e 33 74
e 33 80
e 34 35
e 34 38
e 34 39
e 34 40
e 34 42
e 34 46
e 34 49
e 34 57
e 34 64
e 34 67
e 34 78
e 35 36
e 35 44
e 35 45
e 35 47
e 35 51
e 35 55
e 35 56
e 35 62
e 35 63
e 35 66
e 35 69
e 35 74
e 35 75
e 35 76
e 35 77
e 35 79
e 35 80
e 36 38
e 36 39
e 36 48
e 36 49
e 36 57
e 36 59
e 36 60
e 36 61
e 36 64
e 36 67
e 36 73
e 36 78
e 37 44
e 37 45
e 37 47
e 37 50
e 37 51
e 37 54
e 37 58
e 37 62
e 37 63
e 37 66
e 37 68
e 37 69
e 37 71
e 37 72
e 37 74
e 37 79
e 38 44
e 38 45
e 38 54
e 38 56
e 38 62
e 38 66
e 38 68
e 38 69
e 38 72
e 38 74
e 38 75
e 38 77
e 38 80
e 39 41
e 39 44
e 39 47
e 39 50
e 39 51
e 39 54
e 39 55
e 39 56
e 39 58
e 39 62
e 39 69
e 39 75
e 39 76
e 39 77
e 39 79
e 40 41
e 40 43
e 40 45
e 40 47
e 40 50
e 40 55
e 40 62
e 40 68
e 40 69
e 40 74
e 40 75
e 40 77
e 40 80
e 41 46
e 41 52
e 41 57
e 41 60
e 41 70
e 41 73
e 41 78
e 42 44
e 42 47
e 42 50
e 42 56
e 42 58
e 42 62
e 42 63
e 42 66
e 42 69
e 42 71
e 42 74
e 42 75
e 42 77
e 42 79
e 43 46
e 43 48
e 43 49
e 43 52
e 43 53
e 43 59
e 43 61
e 43 67
e 43 70
e 43 73
e 44 46
e 44 48
e 44 52
e 44 65
e 44 67
e 44 73
e 44 78
e 45 48
e 45 49
e 45 59
e 45 60
e 45 61
e 45 64
e 45 65
e 45 67
e 45 73
e 46 47
e 46 50
e 46 54
e 46 55
e 46 62
e 46 63
e 46 66
e 46 71
e 46 74
e 46 75
e 46 76
e 46 77
e 46 80
e 47 52
e 47 57
e 47 59
e 47 65
e 47 67
e 47 70
e 47 73
e 47 78
e 48 50
e 48 51
e 48 58
e 48 63
e 48 66
e 48 69
e 48 72
e 48 74
e 48 75
e 48 76
e 48 80
e 49 50
e 49 51
e 49 54
e 49 55
e 49 56
e 49 58
e 49 62
e 49 63
e 49 66
e 49 68
e 49 69
e 49 71
e 49 72
e 49 74
e 49 77
e 49 79
e 49 80
e 50 52
e 50 53
e 50 57
e 50 64
e 50 65
e 50 67
e 50 70
e 50 78
e 51 52
e 51 59
e 51 64
e 51 70
e 52 54
e 52 55
e 52 58
e 52 62
e 52 63
e 52 66
e 52 68
e 52 69
e 52 71
e 52 75
e 52 76
e 52 80
e 53 54
e 53 55
e 53 63
e 53 66
e 53 69
e 53 75
e 53 76
e 53 77
e 53 80
e 54 61
e 54 65
e 54 67
e 54 70
e 54 73
e 54 78
e 55 57
e 55 59
e 55 60
e 55 64
e 55 65
e 55 67
e 55 73
e 55 78
e 56 57
e 56 59
e 56 60
e 56 61
e 56 64
e 56 65
e 56 67
e 56 73
e 56 78
e 57 58
e 57 72
e 57 74
e 57 75
e 57 79
e 57 80
e 58 61
e 58 64
e 58 65
e 58 67
e 58 70
e 58 78
e 59 62
e 59 63
e 59 71
e 59 77
e 59 79
e 59 80
e 60 62
e 60 66
e 60 68
e 60 69
e 60 76
e 60 77
e 60 79
e 60 80
e 61 62
e 61 63
e 61 66
e 61 68
e 61 69
e 61 71
e 61 75
e 61 77
e 61 80
e 62 64
e 62 65
e 62 73
e 63 64
e 63 65
e 63 70
e 64 66
e 64 68
e 64 69
e 64 71
e 64 72
e 64 75
e 64 76
e 64 77
e 64 80
e 65 69
e 65 71
e 65 72
e 65 74
e 65 76
e 65 77
e 65 79
e 65 80
e 66 67
e 67 68
e 67 69
e 67 71
e 67 74
e 67 75
e 67 76
e 67 77
e 67 80
e 68 78
e 69 70
e 70 72
e 70 80
e 72 73
e 72 78
e 73 75
e 73 76
e 73 77
e 78 80
